(declare-const X String)
; (([\w|\.]*)\s*={1}\s*(.*?))$
(assert (not (str.in_re X (re.++ (str.to_re "\u{a}") (re.* (re.union (str.to_re "|") (str.to_re ".") (re.range "0" "9") (re.range "A" "Z") (re.range "a" "z") (str.to_re "_"))) (re.* (re.union (str.to_re " ") (str.to_re "\u{9}") (str.to_re "\u{a}") (str.to_re "\u{c}") (str.to_re "\u{d}"))) ((_ re.loop 1 1) (str.to_re "=")) (re.* (re.union (str.to_re " ") (str.to_re "\u{9}") (str.to_re "\u{a}") (str.to_re "\u{c}") (str.to_re "\u{d}"))) (re.* re.allchar)))))
(check-sat)
